TIP.Original.Linear/tip2015_weird_nat_mul3_comm13.smt2
(set-logic HORN)
(declare-datatypes ((Nat_386 0)) (((zero_90 ) (succ_88 (p_249 Nat_386)))))
(declare-fun diseqNat_386 (Nat_386 Nat_386) Bool)
(declare-fun p_250 (Nat_386 Nat_386) Bool)
(declare-fun iszero_88 (Nat_386) Bool)
(declare-fun issucc_88 (Nat_386) Bool)
(assert (forall ((x_37616 Nat_386))
	(p_250 x_37616 (succ_88 x_37616))))
(assert (iszero_88 zero_90))
(assert (forall ((x_37618 Nat_386))
	(issucc_88 (succ_88 x_37618))))
(assert (forall ((x_37619 Nat_386))
	(diseqNat_386 zero_90 (succ_88 x_37619))))
(assert (forall ((x_37620 Nat_386))
	(diseqNat_386 (succ_88 x_37620) zero_90)))
(assert (forall ((x_37621 Nat_386) (x_37622 Nat_386))
	(=> (diseqNat_386 x_37621 x_37622)
	    (diseqNat_386 (succ_88 x_37621) (succ_88 x_37622)))))
(declare-fun plus_85 (Nat_386 Nat_386 Nat_386) Bool)
(assert (forall ((x_37520 Nat_386) (z_1332 Nat_386) (y_1446 Nat_386))
	(=> (plus_85 x_37520 z_1332 y_1446)
	    (plus_85 (succ_88 x_37520) (succ_88 z_1332) y_1446))))
(assert (forall ((x_37521 Nat_386))
	(plus_85 x_37521 zero_90 x_37521)))
(declare-fun add_241 (Nat_386 Nat_386 Nat_386 Nat_386) Bool)
(assert (forall ((x_37522 Nat_386) (x_37523 Nat_386) (x_37508 Nat_386) (y_1447 Nat_386) (z_1333 Nat_386))
	(=>	(and (add_241 x_37523 x_37508 y_1447 z_1333)
			(plus_85 x_37522 (succ_88 zero_90) x_37523))
		(add_241 x_37522 (succ_88 x_37508) y_1447 z_1333))))
(assert (forall ((x_37525 Nat_386) (x_37526 Nat_386) (x_37509 Nat_386) (z_1333 Nat_386))
	(=>	(and (add_241 x_37526 zero_90 x_37509 z_1333)
			(plus_85 x_37525 (succ_88 zero_90) x_37526))
		(add_241 x_37525 zero_90 (succ_88 x_37509) z_1333))))
(assert (forall ((x_37528 Nat_386))
	(add_241 x_37528 zero_90 zero_90 x_37528)))
(declare-fun mul_6 (Nat_386 Nat_386 Nat_386 Nat_386) Bool)
(assert (forall ((x_37529 Nat_386) (x_37530 Nat_386) (x_37531 Nat_386) (x_37532 Nat_386) (x_37533 Nat_386) (x_37534 Nat_386) (x_37535 Nat_386) (fail_18 Nat_386))
	(=>	(and (mul_6 x_37529 zero_90 zero_90 zero_90)
			(mul_6 x_37530 (succ_88 zero_90) zero_90 zero_90)
			(mul_6 x_37531 zero_90 (succ_88 zero_90) zero_90)
			(mul_6 x_37532 zero_90 zero_90 (succ_88 zero_90))
			(add_241 x_37533 x_37530 x_37531 x_37532)
			(add_241 x_37534 zero_90 zero_90 zero_90)
			(add_241 x_37535 x_37529 x_37533 x_37534)
			(plus_85 fail_18 (succ_88 zero_90) x_37535))
		(mul_6 (succ_88 zero_90) (succ_88 zero_90) (succ_88 zero_90) (succ_88 zero_90)))))
(assert (forall ((x_37538 Nat_386) (x_37539 Nat_386) (x_37540 Nat_386) (x_37541 Nat_386) (x_37542 Nat_386) (x_37543 Nat_386) (x_37544 Nat_386) (fail_18 Nat_386) (x_37513 Nat_386) (x_37512 Nat_386) (x_37511 Nat_386))
	(=>	(and (diseqNat_386 x_37511 zero_90)
			(mul_6 x_37538 x_37511 x_37512 x_37513)
			(mul_6 x_37539 (succ_88 zero_90) x_37512 x_37513)
			(mul_6 x_37540 x_37511 (succ_88 zero_90) x_37513)
			(mul_6 x_37541 x_37511 x_37512 (succ_88 zero_90))
			(add_241 x_37542 x_37539 x_37540 x_37541)
			(add_241 x_37543 x_37511 x_37512 x_37513)
			(add_241 x_37544 x_37538 x_37542 x_37543)
			(plus_85 fail_18 (succ_88 zero_90) x_37544))
		(mul_6 fail_18 (succ_88 x_37511) (succ_88 x_37512) (succ_88 x_37513)))))
(assert (forall ((x_37547 Nat_386) (x_37548 Nat_386) (x_37549 Nat_386) (x_37550 Nat_386) (x_37551 Nat_386) (x_37552 Nat_386) (x_37553 Nat_386) (fail_18 Nat_386) (x_37513 Nat_386) (x_37512 Nat_386))
	(=>	(and (diseqNat_386 x_37512 zero_90)
			(mul_6 x_37547 zero_90 x_37512 x_37513)
			(mul_6 x_37548 (succ_88 zero_90) x_37512 x_37513)
			(mul_6 x_37549 zero_90 (succ_88 zero_90) x_37513)
			(mul_6 x_37550 zero_90 x_37512 (succ_88 zero_90))
			(add_241 x_37551 x_37548 x_37549 x_37550)
			(add_241 x_37552 zero_90 x_37512 x_37513)
			(add_241 x_37553 x_37547 x_37551 x_37552)
			(plus_85 fail_18 (succ_88 zero_90) x_37553))
		(mul_6 fail_18 (succ_88 zero_90) (succ_88 x_37512) (succ_88 x_37513)))))
(assert (forall ((x_37556 Nat_386) (x_37557 Nat_386) (x_37558 Nat_386) (x_37559 Nat_386) (x_37560 Nat_386) (x_37561 Nat_386) (x_37562 Nat_386) (fail_18 Nat_386) (x_37513 Nat_386) (x_37512 Nat_386) (x_37511 Nat_386))
	(=>	(and (diseqNat_386 x_37511 zero_90)
			(mul_6 x_37556 x_37511 x_37512 x_37513)
			(mul_6 x_37557 (succ_88 zero_90) x_37512 x_37513)
			(mul_6 x_37558 x_37511 (succ_88 zero_90) x_37513)
			(mul_6 x_37559 x_37511 x_37512 (succ_88 zero_90))
			(add_241 x_37560 x_37557 x_37558 x_37559)
			(add_241 x_37561 x_37511 x_37512 x_37513)
			(add_241 x_37562 x_37556 x_37560 x_37561)
			(plus_85 fail_18 (succ_88 zero_90) x_37562))
		(mul_6 fail_18 (succ_88 x_37511) (succ_88 x_37512) (succ_88 x_37513)))))
(assert (forall ((x_37565 Nat_386) (x_37566 Nat_386) (x_37567 Nat_386) (x_37568 Nat_386) (x_37569 Nat_386) (x_37570 Nat_386) (x_37571 Nat_386) (fail_18 Nat_386) (x_37513 Nat_386))
	(=>	(and (diseqNat_386 x_37513 zero_90)
			(mul_6 x_37565 zero_90 zero_90 x_37513)
			(mul_6 x_37566 (succ_88 zero_90) zero_90 x_37513)
			(mul_6 x_37567 zero_90 (succ_88 zero_90) x_37513)
			(mul_6 x_37568 zero_90 zero_90 (succ_88 zero_90))
			(add_241 x_37569 x_37566 x_37567 x_37568)
			(add_241 x_37570 zero_90 zero_90 x_37513)
			(add_241 x_37571 x_37565 x_37569 x_37570)
			(plus_85 fail_18 (succ_88 zero_90) x_37571))
		(mul_6 fail_18 (succ_88 zero_90) (succ_88 zero_90) (succ_88 x_37513)))))
(assert (forall ((x_37574 Nat_386) (x_37575 Nat_386) (x_37576 Nat_386) (x_37577 Nat_386) (x_37578 Nat_386) (x_37579 Nat_386) (x_37580 Nat_386) (fail_18 Nat_386) (x_37513 Nat_386) (x_37512 Nat_386) (x_37511 Nat_386))
	(=>	(and (diseqNat_386 x_37511 zero_90)
			(mul_6 x_37574 x_37511 x_37512 x_37513)
			(mul_6 x_37575 (succ_88 zero_90) x_37512 x_37513)
			(mul_6 x_37576 x_37511 (succ_88 zero_90) x_37513)
			(mul_6 x_37577 x_37511 x_37512 (succ_88 zero_90))
			(add_241 x_37578 x_37575 x_37576 x_37577)
			(add_241 x_37579 x_37511 x_37512 x_37513)
			(add_241 x_37580 x_37574 x_37578 x_37579)
			(plus_85 fail_18 (succ_88 zero_90) x_37580))
		(mul_6 fail_18 (succ_88 x_37511) (succ_88 x_37512) (succ_88 x_37513)))))
(assert (forall ((x_37583 Nat_386) (x_37584 Nat_386) (x_37585 Nat_386) (x_37586 Nat_386) (x_37587 Nat_386) (x_37588 Nat_386) (x_37589 Nat_386) (fail_18 Nat_386) (x_37513 Nat_386) (x_37512 Nat_386))
	(=>	(and (diseqNat_386 x_37512 zero_90)
			(mul_6 x_37583 zero_90 x_37512 x_37513)
			(mul_6 x_37584 (succ_88 zero_90) x_37512 x_37513)
			(mul_6 x_37585 zero_90 (succ_88 zero_90) x_37513)
			(mul_6 x_37586 zero_90 x_37512 (succ_88 zero_90))
			(add_241 x_37587 x_37584 x_37585 x_37586)
			(add_241 x_37588 zero_90 x_37512 x_37513)
			(add_241 x_37589 x_37583 x_37587 x_37588)
			(plus_85 fail_18 (succ_88 zero_90) x_37589))
		(mul_6 fail_18 (succ_88 zero_90) (succ_88 x_37512) (succ_88 x_37513)))))
(assert (forall ((x_37592 Nat_386) (x_37593 Nat_386) (x_37594 Nat_386) (x_37595 Nat_386) (x_37596 Nat_386) (x_37597 Nat_386) (x_37598 Nat_386) (fail_18 Nat_386) (x_37513 Nat_386) (x_37512 Nat_386) (x_37511 Nat_386))
	(=>	(and (diseqNat_386 x_37511 zero_90)
			(mul_6 x_37592 x_37511 x_37512 x_37513)
			(mul_6 x_37593 (succ_88 zero_90) x_37512 x_37513)
			(mul_6 x_37594 x_37511 (succ_88 zero_90) x_37513)
			(mul_6 x_37595 x_37511 x_37512 (succ_88 zero_90))
			(add_241 x_37596 x_37593 x_37594 x_37595)
			(add_241 x_37597 x_37511 x_37512 x_37513)
			(add_241 x_37598 x_37592 x_37596 x_37597)
			(plus_85 fail_18 (succ_88 zero_90) x_37598))
		(mul_6 fail_18 (succ_88 x_37511) (succ_88 x_37512) (succ_88 x_37513)))))
(assert (forall ((x_37512 Nat_386) (x_37511 Nat_386))
	(mul_6 zero_90 (succ_88 x_37511) (succ_88 x_37512) zero_90)))
(assert (forall ((x_37511 Nat_386) (z_1334 Nat_386))
	(mul_6 zero_90 (succ_88 x_37511) zero_90 z_1334)))
(assert (forall ((y_1448 Nat_386) (z_1334 Nat_386))
	(mul_6 zero_90 zero_90 y_1448 z_1334)))
(assert (forall ((x_37604 Nat_386) (x_37605 Nat_386) (x_37514 Nat_386) (y_1449 Nat_386) (z_1335 Nat_386))
	(=>	(and true
			(diseqNat_386 x_37604 x_37605)
			(mul_6 x_37604 x_37514 y_1449 z_1335)
			(mul_6 x_37605 z_1335 y_1449 x_37514))
		false)))
(assert (forall ((x_37606 Nat_386) (x_37607 Nat_386) (x_37608 Nat_386) (x_37609 Nat_386) (x_37515 Nat_386) (y_1450 Nat_386) (z_1336 Nat_386))
	(=>	(and true
			(diseqNat_386 x_37607 x_37609)
			(plus_85 x_37606 y_1450 z_1336)
			(plus_85 x_37607 x_37515 x_37606)
			(plus_85 x_37608 x_37515 y_1450)
			(plus_85 x_37609 x_37608 z_1336))
		false)))
(assert (forall ((x_37610 Nat_386) (x_37611 Nat_386) (x_37516 Nat_386) (y_1451 Nat_386))
	(=>	(and true
			(diseqNat_386 x_37610 x_37611)
			(plus_85 x_37610 x_37516 y_1451)
			(plus_85 x_37611 y_1451 x_37516))
		false)))
(assert (forall ((x_37612 Nat_386) (x_37517 Nat_386))
	(=>	(and true
			(diseqNat_386 x_37612 x_37517)
			(plus_85 x_37612 x_37517 zero_90))
		false)))
(assert (forall ((x_37613 Nat_386) (x_37518 Nat_386))
	(=>	(and true
			(diseqNat_386 x_37613 x_37518)
			(plus_85 x_37613 zero_90 x_37518))
		false)))
(check-sat)
